c t pwmc
c file mc2024_track4_051.cnf
p cnf 140 368
c p weight 28 0.10000000 0
c p weight -28 0.90000000 0
c p weight 127 0.24712992 0
c p weight -127 0.75287008 0
c p weight 20 0.10000000 0
c p weight -20 0.90000000 0
c p weight 1 0.10000000 0
c p weight -1 0.90000000 0
c p weight 2 0.10000000 0
c p weight -2 0.90000000 0
c p weight 3 0.10000000 0
c p weight -3 0.90000000 0
c p weight 4 0.10000000 0
c p weight -4 0.90000000 0
c p weight 5 0.10000000 0
c p weight -5 0.90000000 0
c p weight 6 0.10000000 0
c p weight -6 0.90000000 0
c p weight 7 0.10000000 0
c p weight -7 0.90000000 0
c p weight 8 0.10000000 0
c p weight -8 0.90000000 0
c p weight 9 0.10000000 0
c p weight -9 0.90000000 0
c p weight 10 0.10000000 0
c p weight -10 0.90000000 0
c p weight 11 0.10000000 0
c p weight -11 0.90000000 0
c p weight 12 0.10000000 0
c p weight -12 0.90000000 0
c p weight 13 0.10000000 0
c p weight -13 0.90000000 0
c p weight 14 0.10000000 0
c p weight -14 0.90000000 0
c p weight 15 0.10000000 0
c p weight -15 0.90000000 0
c p weight 16 0.10000000 0
c p weight -16 0.90000000 0
c p weight 17 0.10000000 0
c p weight -17 0.90000000 0
c p weight 18 0.10000000 0
c p weight -18 0.90000000 0
c p weight 19 0.10000000 0
c p weight -19 0.90000000 0
c p weight 21 0.10000000 0
c p weight -21 0.90000000 0
c p weight 22 0.10000000 0
c p weight -22 0.90000000 0
c p weight 23 0.10000000 0
c p weight -23 0.90000000 0
c p weight 24 0.10000000 0
c p weight -24 0.90000000 0
c p weight 25 0.10000000 0
c p weight -25 0.90000000 0
c p weight 26 0.10000000 0
c p weight -26 0.90000000 0
c p weight 27 0.10000000 0
c p weight -27 0.90000000 0
c p weight 29 0.10000000 0
c p weight -29 0.90000000 0
c p weight 30 0.10000000 0
c p weight -30 0.90000000 0
c p weight 31 0.10000000 0
c p weight -31 0.90000000 0
c p weight 32 0.10000000 0
c p weight -32 0.90000000 0
c p weight 33 0.10000000 0
c p weight -33 0.90000000 0
c p weight 34 0.10000000 0
c p weight -34 0.90000000 0
c p weight 35 0.10000000 0
c p weight -35 0.90000000 0
c p weight 36 0.10000000 0
c p weight -36 0.90000000 0
c p weight 37 0.10000000 0
c p weight -37 0.90000000 0
c p weight 38 0.10000000 0
c p weight -38 0.90000000 0
c p weight 39 0.10000000 0
c p weight -39 0.90000000 0
c p weight 40 0.10000000 0
c p weight -40 0.90000000 0
c p weight 41 0.10000000 0
c p weight -41 0.90000000 0
c p weight 42 0.10000000 0
c p weight -42 0.90000000 0
c p weight 43 0.10000000 0
c p weight -43 0.90000000 0
c p weight 44 0.10000000 0
c p weight -44 0.90000000 0
c p weight 45 0.10000000 0
c p weight -45 0.90000000 0
c p weight 46 0.10000000 0
c p weight -46 0.90000000 0
c p weight 47 0.10000000 0
c p weight -47 0.90000000 0
c p weight 48 0.10000000 0
c p weight -48 0.90000000 0
c p weight 49 0.10000000 0
c p weight -49 0.90000000 0
c p weight 50 0.10000000 0
c p weight -50 0.90000000 0
c p weight 51 0.10000000 0
c p weight -51 0.90000000 0
c p weight 52 0.10000000 0
c p weight -52 0.90000000 0
c p weight 53 0.10000000 0
c p weight -53 0.90000000 0
c p weight 54 0.10000000 0
c p weight -54 0.90000000 0
c p weight 55 0.10000000 0
c p weight -55 0.90000000 0
c p weight 56 0.10000000 0
c p weight -56 0.90000000 0
c p weight 57 0.10000000 0
c p weight -57 0.90000000 0
c p weight 58 0.10000000 0
c p weight -58 0.90000000 0
c p weight 59 0.10000000 0
c p weight -59 0.90000000 0
c p weight 60 0.10000000 0
c p weight -60 0.90000000 0
c p weight 61 0.10000000 0
c p weight -61 0.90000000 0
c p weight 62 0.10000000 0
c p weight -62 0.90000000 0
c p weight 63 0.10000000 0
c p weight -63 0.90000000 0
c p weight 64 0.10000000 0
c p weight -64 0.90000000 0
c p weight 65 0.10000000 0
c p weight -65 0.90000000 0
c p weight 66 0.10000000 0
c p weight -66 0.90000000 0
c p weight 67 0.10000000 0
c p weight -67 0.90000000 0
c p weight 68 0.10000000 0
c p weight -68 0.90000000 0
c p weight 69 0.10000000 0
c p weight -69 0.90000000 0
c p weight 70 0.10000000 0
c p weight -70 0.90000000 0
c p weight 71 1 0
c p weight -71 1 0
c p weight 72 1 0
c p weight -72 1 0
c p weight 73 1 0
c p weight -73 1 0
c p weight 74 1 0
c p weight -74 1 0
c p weight 75 1 0
c p weight -75 1 0
c p weight 76 1 0
c p weight -76 1 0
c p weight 77 1 0
c p weight -77 1 0
c p weight 78 1 0
c p weight -78 1 0
c p weight 79 1 0
c p weight -79 1 0
c p weight 80 1 0
c p weight -80 1 0
c p weight 81 1 0
c p weight -81 1 0
c p weight 82 1 0
c p weight -82 1 0
c p weight 83 1 0
c p weight -83 1 0
c p weight 84 1 0
c p weight -84 1 0
c p weight 85 1 0
c p weight -85 1 0
c p weight 86 1 0
c p weight -86 1 0
c p weight 87 1 0
c p weight -87 1 0
c p weight 88 1 0
c p weight -88 1 0
c p weight 89 1 0
c p weight -89 1 0
c p weight 90 1 0
c p weight -90 1 0
c p weight 91 1 0
c p weight -91 1 0
c p weight 92 1 0
c p weight -92 1 0
c p weight 93 1 0
c p weight -93 1 0
c p weight 94 1 0
c p weight -94 1 0
c p weight 95 1 0
c p weight -95 1 0
c p weight 96 1 0
c p weight -96 1 0
c p weight 97 1 0
c p weight -97 1 0
c p weight 98 1 0
c p weight -98 1 0
c p weight 99 1 0
c p weight -99 1 0
c p weight 100 1 0
c p weight -100 1 0
c p weight 101 1 0
c p weight -101 1 0
c p weight 102 1 0
c p weight -102 1 0
c p weight 103 1 0
c p weight -103 1 0
c p weight 104 1 0
c p weight -104 1 0
c p weight 105 1 0
c p weight -105 1 0
c p weight 106 1 0
c p weight -106 1 0
c p weight 107 1 0
c p weight -107 1 0
c p weight 108 1 0
c p weight -108 1 0
c p weight 109 1 0
c p weight -109 1 0
c p weight 110 1 0
c p weight -110 1 0
c p weight 111 1 0
c p weight -111 1 0
c p weight 112 1 0
c p weight -112 1 0
c p weight 113 1 0
c p weight -113 1 0
c p weight 114 1 0
c p weight -114 1 0
c p weight 115 1 0
c p weight -115 1 0
c p weight 116 1 0
c p weight -116 1 0
c p weight 117 1 0
c p weight -117 1 0
c p weight 118 1 0
c p weight -118 1 0
c p weight 119 1 0
c p weight -119 1 0
c p weight 120 1 0
c p weight -120 1 0
c p weight 121 1 0
c p weight -121 1 0
c p weight 122 1 0
c p weight -122 1 0
c p weight 123 1 0
c p weight -123 1 0
c p weight 124 1 0
c p weight -124 1 0
c p weight 125 1 0
c p weight -125 1 0
c p weight 126 1 0
c p weight -126 1 0
c p weight 128 1 0
c p weight -128 1 0
c p weight 129 1 0
c p weight -129 1 0
c p weight 130 1 0
c p weight -130 1 0
c p weight 131 1 0
c p weight -131 1 0
c p weight 132 1 0
c p weight -132 1 0
c p weight 133 1 0
c p weight -133 1 0
c p weight 134 1 0
c p weight -134 1 0
c p weight 135 1 0
c p weight -135 1 0
c p weight 136 1 0
c p weight -136 1 0
c p weight 137 1 0
c p weight -137 1 0
c p weight 138 1 0
c p weight -138 1 0
c p weight 139 1 0
c p weight -139 1 0
c p weight 140 1 0
c p weight -140 1 0
-44 71 0
-55 71 0
-51 71 0
-62 71 0
-71 44 55 51 62 0
-62 72 0
-37 72 0
-28 72 0
-2 72 0
-72 62 37 28 2 0
-34 73 0
-18 73 0
-62 73 0
-49 73 0
-73 34 18 62 49 0
-59 74 0
-13 74 0
-25 74 0
-19 74 0
-74 59 13 25 19 0
-31 75 0
-58 75 0
-54 75 0
-35 75 0
-75 31 58 54 35 0
-6 76 0
-33 76 0
-26 76 0
-67 76 0
-76 6 33 26 67 0
-53 77 0
-13 77 0
-31 77 0
-26 77 0
-77 53 13 31 26 0
-9 78 0
-11 78 0
-18 78 0
-59 78 0
-78 9 11 18 59 0
-2 79 0
-21 79 0
-26 79 0
-41 79 0
-79 2 21 26 41 0
-12 80 0
-27 80 0
-4 80 0
-29 80 0
-80 12 27 4 29 0
-30 81 0
-66 81 0
-19 81 0
-18 81 0
-81 30 66 19 18 0
-20 82 0
-44 82 0
-48 82 0
-50 82 0
-82 20 44 48 50 0
-31 83 0
-44 83 0
-26 83 0
-48 83 0
-83 31 44 26 48 0
-6 84 0
-63 84 0
-56 84 0
-58 84 0
-84 6 63 56 58 0
-18 85 0
-16 85 0
-25 85 0
-26 85 0
-85 18 16 25 26 0
-26 86 0
-54 86 0
-15 86 0
-39 86 0
-86 26 54 15 39 0
-4 87 0
-40 87 0
-10 87 0
-16 87 0
-87 4 40 10 16 0
-8 88 0
-13 88 0
-56 88 0
-49 88 0
-88 8 13 56 49 0
-20 89 0
-5 89 0
-67 89 0
-39 89 0
-89 20 5 67 39 0
-60 90 0
-56 90 0
-30 90 0
-32 90 0
-90 60 56 30 32 0
-29 91 0
-68 91 0
-9 91 0
-34 91 0
-91 29 68 9 34 0
-60 92 0
-64 92 0
-33 92 0
-7 92 0
-92 60 64 33 7 0
-22 93 0
-69 93 0
-45 93 0
-47 93 0
-93 22 69 45 47 0
-52 94 0
-59 94 0
-16 94 0
-56 94 0
-94 52 59 16 56 0
-40 95 0
-25 95 0
-13 95 0
-47 95 0
-95 40 25 13 47 0
-49 96 0
-68 96 0
-37 96 0
-69 96 0
-96 49 68 37 69 0
-14 97 0
-45 97 0
-37 97 0
-3 97 0
-97 14 45 37 3 0
-31 98 0
-9 98 0
-46 98 0
-1 98 0
-98 31 9 46 1 0
-6 99 0
-54 99 0
-47 99 0
-7 99 0
-99 6 54 47 7 0
-60 100 0
-9 100 0
-26 100 0
-11 100 0
-100 60 9 26 11 0
-8 101 0
-70 101 0
-57 101 0
-59 101 0
-101 8 70 57 59 0
-58 102 0
-14 102 0
-56 102 0
-39 102 0
-102 58 14 56 39 0
-50 103 0
-68 103 0
-15 103 0
-29 103 0
-103 50 68 15 29 0
-66 104 0
-51 104 0
-27 104 0
-21 104 0
-104 66 51 27 21 0
-26 105 0
-5 105 0
-36 105 0
-68 105 0
-105 26 5 36 68 0
-13 106 0
-11 106 0
-68 106 0
-30 106 0
-106 13 11 68 30 0
-7 107 0
-56 107 0
-37 107 0
-66 107 0
-107 7 56 37 66 0
-65 108 0
-62 108 0
-18 108 0
-14 108 0
-108 65 62 18 14 0
-61 109 0
-16 109 0
-2 109 0
-60 109 0
-109 61 16 2 60 0
-30 110 0
-58 110 0
-28 110 0
-9 110 0
-110 30 58 28 9 0
-67 111 0
-54 111 0
-37 111 0
-4 111 0
-111 67 54 37 4 0
-46 112 0
-5 112 0
-25 112 0
-13 112 0
-112 46 5 25 13 0
-10 113 0
-60 113 0
-22 113 0
-12 113 0
-113 10 60 22 12 0
-32 114 0
-52 114 0
-18 114 0
-17 114 0
-114 32 52 18 17 0
-30 115 0
-25 115 0
-11 115 0
-33 115 0
-115 30 25 11 33 0
-42 116 0
-24 116 0
-35 116 0
-58 116 0
-116 42 24 35 58 0
-38 117 0
-24 117 0
-29 117 0
-37 117 0
-117 38 24 29 37 0
-63 118 0
-37 118 0
-33 118 0
-58 118 0
-118 63 37 33 58 0
-16 119 0
-37 119 0
-45 119 0
-20 119 0
-119 16 37 45 20 0
-61 120 0
-58 120 0
-29 120 0
-62 120 0
-120 61 58 29 62 0
-9 121 0
-63 121 0
-3 121 0
-52 121 0
-121 9 63 3 52 0
-56 122 0
-33 122 0
-69 122 0
-27 122 0
-122 56 33 69 27 0
-57 123 0
-21 123 0
-59 123 0
-29 123 0
-123 57 21 59 29 0
-45 124 0
-23 124 0
-16 124 0
-24 124 0
-124 45 23 16 24 0
-58 125 0
-44 125 0
-60 125 0
-62 125 0
-125 58 44 60 62 0
-22 126 0
-34 126 0
-49 126 0
-70 126 0
-126 22 34 49 70 0
-23 127 0
-69 127 0
-2 127 0
-22 127 0
-127 23 69 2 22 0
-39 128 0
-5 128 0
-43 128 0
-20 128 0
-128 39 5 43 20 0
-24 129 0
-40 129 0
-52 129 0
-22 129 0
-129 24 40 52 22 0
-66 130 0
-38 130 0
-55 130 0
-54 130 0
-130 66 38 55 54 0
-8 131 0
-29 131 0
-6 131 0
-35 131 0
-131 8 29 6 35 0
-64 132 0
-5 132 0
-20 132 0
-65 132 0
-132 64 5 20 65 0
-66 133 0
-42 133 0
-28 133 0
-44 133 0
-133 66 42 28 44 0
-20 134 0
-40 134 0
-9 134 0
-30 134 0
-134 20 40 9 30 0
-53 135 0
-42 135 0
-11 135 0
-58 135 0
-135 53 42 11 58 0
-14 136 0
-53 136 0
-7 136 0
-50 136 0
-136 14 53 7 50 0
-23 137 0
-58 137 0
-13 137 0
-30 137 0
-137 23 58 13 30 0
-37 138 0
-67 138 0
-14 138 0
-45 138 0
-138 37 67 14 45 0
-37 139 0
-31 139 0
-9 139 0
-30 139 0
-139 37 31 9 30 0
-36 140 0
-41 140 0
-24 140 0
-31 140 0
-140 36 41 24 31 0
93 0
127 0
85 0
105 0
75 0
92 0
122 0
-128 0
-136 0
111 0
130 0
101 0
-102 0
-94 0
-120 0
-73 0
-89 0
106 0
c p show 28 127 20 0
